2184483
33,6,63,5,40,28,59,4,39,31,55,41,0,46,12,11,48,22,18,29,24,2,23,60,62,15,58,3,19,47,64,44,27,49,52,36,38,61,50,34,67,14,1,35,7,26,16,57,8,30,21,51,13,32,56,17,9,43,20,66,37,42,54,45,25,65,10,53,33
